results/res_prop_muc/res_Cimatti_mathsat_cores/QF_LRA/clocksynchro_8clocks.worst_case_skew.base.smt
(benchmark clock_synchro
  :source { Clock Synchronization. Bruno Dutertre (bruno@csl.sri.com) }


  :status unsat
:category { industrial }
:difficulty { 0 }
  :logic QF_LRA
  
  :extrafuns ((x_0 Real))
  :extrafuns ((x_1 Real))
  :extrafuns ((x_2 Real))
  :extrafuns ((x_3 Real))
  :extrafuns ((x_4 Real))
  :extrafuns ((x_5 Real))
  :extrafuns ((x_6 Real))
  :extrafuns ((x_7 Real))
  :extrafuns ((x_8 Real))
  :extrafuns ((x_9 Real))
  :extrafuns ((x_10 Real))
  :extrafuns ((x_11 Real))
  :extrafuns ((x_12 Real))
  :extrafuns ((x_13 Real))
  :formula
(flet ($cvcl_0 (not (<= (- 1 1) (+ (+ (+ x_11 x_12) (* (* (+ x_13 x_10) 2) (/ 1 999))) (/ 2335 666))))) (and (and (and (and (and (and (and (and (and (and (and (and (and (and (and (and (and (and (and (and (and (and (and (not (<= x_9 0)) (not (<= x_10 0))) (not (<= x_11 0))) (not (< x_12 (+ x_11 (* (* (+ (* (* x_10 1) (/ 1 2)) 1) 1001) (/ 1 999)))))) (< x_13 (- (* (* (- (- x_10 x_12) 1) 999) (/ 1 2)) 1))) (not (< x_13 (* (* (+ (+ (+ x_9 x_11) x_12) (/ 1501 1000)) 1001) (/ 1 999))))) (= x_0 0)) (<= (+ x_0 (/ 999 1000)) x_1)) (<= x_1 (+ x_0 (/ 1001 1000)))) (<= (+ x_0 (/ 999 1000)) x_2)) (<= x_2 (+ x_0 (/ 1001 1000)))) (<= (+ x_0 (/ 999 1000)) x_3)) (<= x_3 (+ x_0 (/ 1001 1000)))) (<= (+ x_0 (/ 999 1000)) x_4)) (<= x_4 (+ x_0 (/ 1001 1000)))) (<= (+ x_0 (/ 999 1000)) x_5)) (<= x_5 (+ x_0 (/ 1001 1000)))) (<= (+ x_0 (/ 999 1000)) x_6)) (<= x_6 (+ x_0 (/ 1001 1000)))) (<= (+ x_0 (/ 999 1000)) x_7)) (<= x_7 (+ x_0 (/ 1001 1000)))) (<= (+ x_0 (/ 999 1000)) x_8)) (<= x_8 (+ x_0 (/ 1001 1000)))) (or (or (or (or (or (or (or (or (or (or (or (or (or (or (or (or (or (or (or (or (or (or (or (or (or (or (or (or (or (or (or (or (or (or (or (or (or (or (or (or (or (or (or (or (or (or (or (or (or (or (or (or (or (or (or (or (or (or (or (or (or (or (or $cvcl_0  $cvcl_0 )  $cvcl_0 )  $cvcl_0 )  $cvcl_0 )  $cvcl_0 )  $cvcl_0 )  $cvcl_0 )  $cvcl_0 )  $cvcl_0 )  $cvcl_0 )  $cvcl_0 )  $cvcl_0 )  $cvcl_0 )  $cvcl_0 )  $cvcl_0 )  $cvcl_0 )  $cvcl_0 )  $cvcl_0 )  $cvcl_0 )  $cvcl_0 )  $cvcl_0 )  $cvcl_0 )  $cvcl_0 )  $cvcl_0 )  $cvcl_0 )  $cvcl_0 )  $cvcl_0 )  $cvcl_0 )  $cvcl_0 )  $cvcl_0 )  $cvcl_0 )  $cvcl_0 )  $cvcl_0 )  $cvcl_0 )  $cvcl_0 )  $cvcl_0 )  $cvcl_0 )  $cvcl_0 )  $cvcl_0 )  $cvcl_0 )  $cvcl_0 )  $cvcl_0 )  $cvcl_0 )  $cvcl_0 )  $cvcl_0 )  $cvcl_0 )  $cvcl_0 )  $cvcl_0 )  $cvcl_0 )  $cvcl_0 )  $cvcl_0 )  $cvcl_0 )  $cvcl_0 )  $cvcl_0 )  $cvcl_0 )  $cvcl_0 )  $cvcl_0 )  $cvcl_0 )  $cvcl_0 )  $cvcl_0 )  $cvcl_0 )  $cvcl_0 )  $cvcl_0 )))
)
